p edge 51 115
e 1 3
e 1 7
e 1 21
e 1 33
e 1 51
e 2 17
e 2 20
e 2 30
e 2 42
e 2 45
e 2 48
e 2 51
e 3 38
e 3 46
e 3 51
e 4 33
e 4 41
e 5 51
e 6 7
e 6 9
e 6 21
e 6 42
e 6 45
e 7 10
e 7 14
e 7 23
e 7 28
e 7 34
e 7 37
e 8 11
e 8 31
e 8 48
e 9 11
e 9 13
e 9 18
e 9 44
e 9 50
e 10 20
e 10 22
e 10 45
e 10 50
e 11 17
e 11 18
e 11 21
e 11 22
e 11 38
e 11 39
e 12 15
e 12 29
e 12 32
e 13 28
e 13 37
e 13 44
e 14 15
e 14 20
e 14 29
e 14 33
e 15 18
e 15 24
e 15 33
e 15 37
e 15 43
e 15 49
e 15 51
e 16 29
e 16 46
e 17 20
e 18 24
e 18 48
e 18 49
e 19 39
e 19 40
e 19 44
e 19 50
e 20 31
e 20 33
e 21 36
e 22 37
e 22 38
e 22 40
e 22 42
e 23 31
e 23 33
e 23 42
e 23 43
e 24 30
e 24 39
e 25 28
e 25 37
e 25 41
e 26 39
e 26 43
e 26 47
e 26 51
e 27 31
e 27 34
e 28 32
e 28 37
e 28 40
e 31 38
e 31 40
e 32 46
e 33 34
e 33 35
e 34 44
e 34 49
e 35 49
e 36 40
e 36 41
e 38 49
e 41 45
e 41 49
e 42 46
e 45 47
e 48 49
